
Gurobi 7.0.2 (linux64, Python) logging started Fri Apr 21 19:26:40 2017


Gurobi 7.0.2 (linux64, Python) logging started Fri Apr 21 19:36:14 2017


Gurobi 7.0.2 (linux64, Python) logging started Fri Apr 21 19:37:03 2017


Gurobi 7.0.2 (linux64, Python) logging started Fri Apr 21 20:00:02 2017


Gurobi 7.0.2 (linux64, Python) logging started Fri Apr 21 20:45:25 2017


Gurobi 7.0.2 (linux64, Python) logging started Tue May  2 11:56:49 2017


Gurobi 7.0.2 (linux64, Python) logging started Wed May 10 17:51:11 2017


Gurobi 7.0.2 (linux64, Python) logging started Wed May 10 20:05:32 2017


Gurobi 7.0.2 (linux64, Python) logging started Wed May 10 20:06:03 2017


Gurobi 7.0.2 (linux64, Python) logging started Thu May 11 13:45:00 2017


Gurobi 7.0.2 (linux64, Python) logging started Thu May 11 22:29:35 2017


Gurobi 7.0.2 (linux64, Python) logging started Thu May 11 22:29:59 2017


Gurobi 7.0.2 (linux64, Python) logging started Thu May 11 22:35:07 2017


Gurobi 7.0.2 (linux64, Python) logging started Thu May 11 23:19:01 2017

